p cnf 966 2481
51 -2 -699 0
-51 2 0
-51 699 0
52 -51 -3 0
-52 51 0
-52 3 0
53 -5 -4 0
-53 5 0
-53 4 0
54 -53 -700 0
-54 53 0
-54 700 0
55 -701 -702 0
-55 701 0
-55 702 0
56 -703 -7 0
-56 703 0
-56 7 0
57 -56 -704 0
-57 56 0
-57 704 0
58 -705 -55 0
-58 705 0
-58 55 0
59 -706 -707 0
-59 706 0
-59 707 0
60 -59 -708 0
-60 59 0
-60 708 0
61 -709 -58 0
-61 709 0
-61 58 0
62 -14 -13 0
-62 14 0
-62 13 0
63 -62 -12 0
-63 62 0
-63 12 0
64 -710 -61 0
-64 710 0
-64 61 0
65 -16 -15 0
-65 16 0
-65 15 0
66 -65 -700 0
-66 65 0
-66 700 0
67 -711 -64 0
-67 711 0
-67 64 0
68 -712 -708 0
-68 712 0
-68 708 0
69 -68 -9 0
-69 68 0
-69 9 0
70 -713 -67 0
-70 713 0
-70 67 0
71 -19 -18 0
-71 19 0
-71 18 0
72 -71 -20 0
-72 71 0
-72 20 0
73 -714 -70 0
-73 714 0
-73 70 0
74 -715 -716 0
-74 715 0
-74 716 0
75 -74 -717 0
-75 74 0
-75 717 0
76 -718 -73 0
-76 718 0
-76 73 0
77 -719 -23 0
-77 719 0
-77 23 0
78 -77 -720 0
-78 77 0
-78 720 0
79 -721 -76 0
-79 721 0
-79 76 0
80 -722 -723 0
-80 722 0
-80 723 0
81 -80 -724 0
-81 80 0
-81 724 0
82 -725 -79 0
-82 725 0
-82 79 0
83 -8 -2 0
-83 8 0
-83 2 0
84 -83 -27 0
-84 83 0
-84 27 0
85 -726 -82 0
-85 726 0
-85 82 0
86 -727 -10 0
-86 727 0
-86 10 0
87 -86 -728 0
-87 86 0
-87 728 0
88 -729 -85 0
-88 729 0
-88 85 0
89 -730 -731 0
-89 730 0
-89 731 0
90 -89 -8 0
-90 89 0
-90 8 0
91 -732 -88 0
-91 732 0
-91 88 0
92 -733 -28 0
-92 733 0
-92 28 0
93 -92 -734 0
-93 92 0
-93 734 0
94 -735 -91 0
-94 735 0
-94 91 0
95 -34 -33 0
-95 34 0
-95 33 0
96 -95 -736 0
-96 95 0
-96 736 0
97 -737 -94 0
-97 737 0
-97 94 0
98 -719 -738 0
-98 719 0
-98 738 0
99 -98 -35 0
-99 98 0
-99 35 0
100 -739 -97 0
-100 739 0
-100 97 0
101 -740 -733 0
-101 740 0
-101 733 0
102 -101 -5 0
-102 101 0
-102 5 0
103 -741 -100 0
-103 741 0
-103 100 0
104 -32 -731 0
-104 32 0
-104 731 0
105 -104 -724 0
-105 104 0
-105 724 0
106 -742 -103 0
-106 742 0
-106 103 0
107 -743 -37 0
-107 743 0
-107 37 0
108 -107 -26 0
-108 107 0
-108 26 0
109 -744 -106 0
-109 744 0
-109 106 0
110 -17 -10 0
-110 17 0
-110 10 0
111 -110 -728 0
-111 110 0
-111 728 0
112 -745 -109 0
-112 745 0
-112 109 0
113 -11 -9 0
-113 11 0
-113 9 0
114 -113 -717 0
-114 113 0
-114 717 0
115 -746 -112 0
-115 746 0
-115 112 0
116 -39 -734 0
-116 39 0
-116 734 0
117 -116 -40 0
-117 116 0
-117 40 0
118 -747 -115 0
-118 747 0
-118 115 0
119 -24 -11 0
-119 24 0
-119 11 0
120 -119 -39 0
-120 119 0
-120 39 0
121 -748 -118 0
-121 748 0
-121 118 0
122 -749 -699 0
-122 749 0
-122 699 0
123 -122 -706 0
-123 122 0
-123 706 0
124 -750 -121 0
-124 750 0
-124 121 0
125 -731 -1 0
-125 731 0
-125 1 0
126 -125 -751 0
-126 125 0
-126 751 0
127 -752 -124 0
-127 752 0
-127 124 0
128 -753 -703 0
-128 753 0
-128 703 0
129 -128 -754 0
-129 128 0
-129 754 0
130 -755 -127 0
-130 755 0
-130 127 0
131 -756 -30 0
-131 756 0
-131 30 0
132 -131 -29 0
-132 131 0
-132 29 0
133 -757 -130 0
-133 757 0
-133 130 0
134 -43 -25 0
-134 43 0
-134 25 0
135 -134 -37 0
-135 134 0
-135 37 0
136 -758 -133 0
-136 758 0
-136 133 0
137 -32 -759 0
-137 32 0
-137 759 0
138 -137 -760 0
-138 137 0
-138 760 0
139 -761 -136 0
-139 761 0
-139 136 0
140 -26 -762 0
-140 26 0
-140 762 0
141 -140 -20 0
-141 140 0
-141 20 0
142 -763 -139 0
-142 763 0
-142 139 0
143 -764 -753 0
-143 764 0
-143 753 0
144 -143 -38 0
-144 143 0
-144 38 0
145 -765 -142 0
-145 765 0
-145 142 0
146 -38 -31 0
-146 38 0
-146 31 0
147 -146 -17 0
-147 146 0
-147 17 0
148 -766 -145 0
-148 766 0
-148 145 0
149 -15 -699 0
-149 15 0
-149 699 0
150 -149 -715 0
-150 149 0
-150 715 0
151 -767 -148 0
-151 767 0
-151 148 0
152 -756 -728 0
-152 756 0
-152 728 0
153 -152 -22 0
-153 152 0
-153 22 0
154 -768 -151 0
-154 768 0
-154 151 0
155 -30 -703 0
-155 30 0
-155 703 0
156 -155 -762 0
-156 155 0
-156 762 0
157 -769 -154 0
-157 769 0
-157 154 0
158 -32 -18 0
-158 32 0
-158 18 0
159 -158 -5 0
-159 158 0
-159 5 0
160 -770 -157 0
-160 770 0
-160 157 0
161 -771 -716 0
-161 771 0
-161 716 0
162 -161 -22 0
-162 161 0
-162 22 0
163 -772 -160 0
-163 772 0
-163 160 0
164 -730 -773 0
-164 730 0
-164 773 0
165 -164 -45 0
-165 164 0
-165 45 0
166 -774 -163 0
-166 774 0
-166 163 0
167 -37 -762 0
-167 37 0
-167 762 0
168 -167 -720 0
-168 167 0
-168 720 0
169 -775 -166 0
-169 775 0
-169 166 0
170 -42 -738 0
-170 42 0
-170 738 0
171 -170 -759 0
-171 170 0
-171 759 0
172 -776 -169 0
-172 776 0
-172 169 0
173 -46 -42 0
-173 46 0
-173 42 0
174 -173 -34 0
-174 173 0
-174 34 0
175 -777 -172 0
-175 777 0
-175 172 0
176 -722 -738 0
-176 722 0
-176 738 0
177 -176 -16 0
-177 176 0
-177 16 0
178 -778 -175 0
-178 778 0
-178 175 0
179 -45 -779 0
-179 45 0
-179 779 0
180 -179 -760 0
-180 179 0
-180 760 0
181 -780 -178 0
-181 780 0
-181 178 0
182 -736 -13 0
-182 736 0
-182 13 0
183 -182 -16 0
-183 182 0
-183 16 0
184 -781 -181 0
-184 781 0
-184 181 0
185 -782 -708 0
-185 782 0
-185 708 0
186 -185 -783 0
-186 185 0
-186 783 0
187 -784 -184 0
-187 784 0
-187 184 0
188 -734 -17 0
-188 734 0
-188 17 0
189 -188 -715 0
-189 188 0
-189 715 0
190 -785 -187 0
-190 785 0
-190 187 0
191 -783 -28 0
-191 783 0
-191 28 0
192 -191 -9 0
-192 191 0
-192 9 0
193 -786 -190 0
-193 786 0
-193 190 0
194 -743 -29 0
-194 743 0
-194 29 0
195 -194 -700 0
-195 194 0
-195 700 0
196 -787 -193 0
-196 787 0
-196 193 0
197 -36 -771 0
-197 36 0
-197 771 0
198 -197 -35 0
-198 197 0
-198 35 0
199 -788 -196 0
-199 788 0
-199 196 0
200 -27 -18 0
-200 27 0
-200 18 0
201 -200 -756 0
-201 200 0
-201 756 0
202 -789 -199 0
-202 789 0
-202 199 0
203 -790 -37 0
-203 790 0
-203 37 0
204 -203 -734 0
-204 203 0
-204 734 0
205 -791 -202 0
-205 791 0
-205 202 0
206 -43 -11 0
-206 43 0
-206 11 0
207 -206 -29 0
-207 206 0
-207 29 0
208 -792 -205 0
-208 792 0
-208 205 0
209 -783 -34 0
-209 783 0
-209 34 0
210 -209 -793 0
-210 209 0
-210 793 0
211 -794 -208 0
-211 794 0
-211 208 0
212 -41 -716 0
-212 41 0
-212 716 0
213 -212 -20 0
-213 212 0
-213 20 0
214 -795 -211 0
-214 795 0
-214 211 0
215 -733 -719 0
-215 733 0
-215 719 0
216 -215 -48 0
-216 215 0
-216 48 0
217 -796 -214 0
-217 796 0
-217 214 0
218 -731 -720 0
-218 731 0
-218 720 0
219 -218 -736 0
-219 218 0
-219 736 0
220 -797 -217 0
-220 797 0
-220 217 0
221 -753 -751 0
-221 753 0
-221 751 0
222 -221 -48 0
-222 221 0
-222 48 0
223 -798 -220 0
-223 798 0
-223 220 0
224 -45 -25 0
-224 45 0
-224 25 0
225 -224 -29 0
-225 224 0
-225 29 0
226 -799 -223 0
-226 799 0
-226 223 0
227 -44 -728 0
-227 44 0
-227 728 0
228 -227 -715 0
-228 227 0
-228 715 0
229 -800 -226 0
-229 800 0
-229 226 0
230 -783 -773 0
-230 783 0
-230 773 0
231 -230 -801 0
-231 230 0
-231 801 0
232 -802 -229 0
-232 802 0
-232 229 0
233 -779 -782 0
-233 779 0
-233 782 0
234 -233 -8 0
-234 233 0
-234 8 0
235 -803 -232 0
-235 803 0
-235 232 0
236 -779 -36 0
-236 779 0
-236 36 0
237 -236 -26 0
-237 236 0
-237 26 0
238 -804 -235 0
-238 804 0
-238 235 0
239 -771 -10 0
-239 771 0
-239 10 0
240 -239 -16 0
-240 239 0
-240 16 0
241 -805 -238 0
-241 805 0
-241 238 0
242 -44 -37 0
-242 44 0
-242 37 0
243 -242 -12 0
-243 242 0
-243 12 0
244 -806 -241 0
-244 806 0
-244 241 0
245 -37 -723 0
-245 37 0
-245 723 0
246 -245 -14 0
-246 245 0
-246 14 0
247 -807 -244 0
-247 807 0
-247 244 0
248 -808 -730 0
-248 808 0
-248 730 0
249 -248 -783 0
-249 248 0
-249 783 0
250 -809 -247 0
-250 809 0
-250 247 0
251 -39 -7 0
-251 39 0
-251 7 0
252 -251 -724 0
-252 251 0
-252 724 0
253 -810 -250 0
-253 810 0
-253 250 0
254 -764 -30 0
-254 764 0
-254 30 0
255 -254 -753 0
-255 254 0
-255 753 0
256 -811 -253 0
-256 811 0
-256 253 0
257 -762 -2 0
-257 762 0
-257 2 0
258 -257 -17 0
-258 257 0
-258 17 0
259 -812 -256 0
-259 812 0
-259 256 0
260 -39 -12 0
-260 39 0
-260 12 0
261 -260 -16 0
-261 260 0
-261 16 0
262 -813 -259 0
-262 813 0
-262 259 0
263 -730 -712 0
-263 730 0
-263 712 0
264 -263 -808 0
-264 263 0
-264 808 0
265 -814 -262 0
-265 814 0
-265 262 0
266 -731 -12 0
-266 731 0
-266 12 0
267 -266 -19 0
-267 266 0
-267 19 0
268 -815 -265 0
-268 815 0
-268 265 0
269 -26 -707 0
-269 26 0
-269 707 0
270 -269 -801 0
-270 269 0
-270 801 0
271 -816 -268 0
-271 816 0
-271 268 0
272 -35 -759 0
-272 35 0
-272 759 0
273 -272 -704 0
-273 272 0
-273 704 0
274 -817 -271 0
-274 817 0
-274 271 0
275 -762 -707 0
-275 762 0
-275 707 0
276 -275 -727 0
-276 275 0
-276 727 0
277 -818 -274 0
-277 818 0
-277 274 0
278 -39 -30 0
-278 39 0
-278 30 0
279 -278 -756 0
-279 278 0
-279 756 0
280 -819 -277 0
-280 819 0
-280 277 0
281 -820 -782 0
-281 820 0
-281 782 0
282 -281 -793 0
-282 281 0
-282 793 0
283 -821 -280 0
-283 821 0
-283 280 0
284 -25 -12 0
-284 25 0
-284 12 0
285 -284 -808 0
-285 284 0
-285 808 0
286 -822 -283 0
-286 822 0
-286 283 0
287 -730 -706 0
-287 730 0
-287 706 0
288 -287 -24 0
-288 287 0
-288 24 0
289 -823 -286 0
-289 823 0
-289 286 0
290 -12 -703 0
-290 12 0
-290 703 0
291 -290 -49 0
-291 290 0
-291 49 0
292 -824 -289 0
-292 824 0
-292 289 0
293 -779 -4 0
-293 779 0
-293 4 0
294 -293 -790 0
-294 293 0
-294 790 0
295 -825 -292 0
-295 825 0
-295 292 0
296 -43 -28 0
-296 43 0
-296 28 0
297 -296 -34 0
-297 296 0
-297 34 0
298 -826 -295 0
-298 826 0
-298 295 0
299 -24 -19 0
-299 24 0
-299 19 0
300 -299 -717 0
-300 299 0
-300 717 0
301 -827 -298 0
-301 827 0
-301 298 0
302 -185 -27 0
-302 185 0
-302 27 0
303 -828 -301 0
-303 828 0
-303 301 0
304 -733 -26 0
-304 733 0
-304 26 0
305 -304 -829 0
-305 304 0
-305 829 0
306 -830 -303 0
-306 830 0
-306 303 0
307 -754 -716 0
-307 754 0
-307 716 0
308 -307 -48 0
-308 307 0
-308 48 0
309 -831 -306 0
-309 831 0
-309 306 0
310 -36 -15 0
-310 36 0
-310 15 0
311 -310 -47 0
-311 310 0
-311 47 0
312 -832 -309 0
-312 832 0
-312 309 0
313 -32 -716 0
-313 32 0
-313 716 0
314 -313 -801 0
-314 313 0
-314 801 0
315 -833 -312 0
-315 833 0
-315 312 0
316 -24 -8 0
-316 24 0
-316 8 0
317 -316 -790 0
-317 316 0
-317 790 0
318 -834 -315 0
-318 834 0
-318 315 0
319 -28 -14 0
-319 28 0
-319 14 0
320 -319 -759 0
-320 319 0
-320 759 0
321 -835 -318 0
-321 835 0
-321 318 0
322 -18 -738 0
-322 18 0
-322 738 0
323 -322 -41 0
-323 322 0
-323 41 0
324 -836 -321 0
-324 836 0
-324 321 0
325 -35 -733 0
-325 35 0
-325 733 0
326 -325 -34 0
-326 325 0
-326 34 0
327 -837 -324 0
-327 837 0
-327 324 0
328 -730 -723 0
-328 730 0
-328 723 0
329 -328 -24 0
-329 328 0
-329 24 0
330 -838 -327 0
-330 838 0
-330 327 0
331 -756 -4 0
-331 756 0
-331 4 0
332 -331 -6 0
-332 331 0
-332 6 0
333 -839 -330 0
-333 839 0
-333 330 0
334 -24 -12 0
-334 24 0
-334 12 0
335 -334 -50 0
-335 334 0
-335 50 0
336 -840 -333 0
-336 840 0
-336 333 0
337 -38 -14 0
-337 38 0
-337 14 0
338 -337 -3 0
-338 337 0
-338 3 0
339 -841 -336 0
-339 841 0
-339 336 0
340 -743 -724 0
-340 743 0
-340 724 0
341 -340 -760 0
-341 340 0
-341 760 0
342 -842 -339 0
-342 842 0
-342 339 0
343 -42 -32 0
-343 42 0
-343 32 0
344 -343 -754 0
-344 343 0
-344 754 0
345 -843 -342 0
-345 843 0
-345 342 0
346 -40 -31 0
-346 40 0
-346 31 0
347 -346 -47 0
-347 346 0
-347 47 0
348 -844 -345 0
-348 844 0
-348 345 0
349 -779 -25 0
-349 779 0
-349 25 0
350 -349 -712 0
-350 349 0
-350 712 0
351 -845 -348 0
-351 845 0
-351 348 0
352 -762 -11 0
-352 762 0
-352 11 0
353 -352 -21 0
-353 352 0
-353 21 0
354 -846 -351 0
-354 846 0
-354 351 0
355 -793 -13 0
-355 793 0
-355 13 0
356 -355 -760 0
-356 355 0
-356 760 0
357 -847 -354 0
-357 847 0
-357 354 0
358 -820 -32 0
-358 820 0
-358 32 0
359 -358 -715 0
-359 358 0
-359 715 0
360 -848 -357 0
-360 848 0
-360 357 0
361 -756 -33 0
-361 756 0
-361 33 0
362 -361 -9 0
-362 361 0
-362 9 0
363 -849 -360 0
-363 849 0
-363 360 0
364 -723 -699 0
-364 723 0
-364 699 0
365 -364 -771 0
-365 364 0
-365 771 0
366 -850 -363 0
-366 850 0
-366 363 0
367 -45 -7 0
-367 45 0
-367 7 0
368 -367 -26 0
-368 367 0
-368 26 0
369 -851 -366 0
-369 851 0
-369 366 0
370 -43 -706 0
-370 43 0
-370 706 0
371 -370 -45 0
-371 370 0
-371 45 0
372 -852 -369 0
-372 852 0
-372 369 0
373 -730 -736 0
-373 730 0
-373 736 0
374 -373 -704 0
-374 373 0
-374 704 0
375 -853 -372 0
-375 853 0
-375 372 0
376 -42 -7 0
-376 42 0
-376 7 0
377 -376 -734 0
-377 376 0
-377 734 0
378 -854 -375 0
-378 854 0
-378 375 0
379 -331 -717 0
-379 331 0
-379 717 0
380 -855 -378 0
-380 855 0
-380 378 0
381 -50 -28 0
-381 50 0
-381 28 0
382 -381 -3 0
-382 381 0
-382 3 0
383 -856 -380 0
-383 856 0
-383 380 0
384 -36 -19 0
-384 36 0
-384 19 0
385 -384 -20 0
-385 384 0
-385 20 0
386 -857 -383 0
-386 857 0
-386 383 0
387 -26 -738 0
-387 26 0
-387 738 0
388 -387 -21 0
-388 387 0
-388 21 0
389 -858 -386 0
-389 858 0
-389 386 0
390 -749 -734 0
-390 749 0
-390 734 0
391 -390 -783 0
-391 390 0
-391 783 0
392 -859 -389 0
-392 859 0
-392 389 0
393 -32 -29 0
-393 32 0
-393 29 0
394 -393 -20 0
-394 393 0
-394 20 0
395 -860 -392 0
-395 860 0
-395 392 0
396 -720 -4 0
-396 720 0
-396 4 0
397 -396 -861 0
-397 396 0
-397 861 0
398 -862 -395 0
-398 862 0
-398 395 0
399 -820 -751 0
-399 820 0
-399 751 0
400 -399 -801 0
-400 399 0
-400 801 0
401 -863 -398 0
-401 863 0
-401 398 0
402 -25 -738 0
-402 25 0
-402 738 0
403 -402 -13 0
-403 402 0
-403 13 0
404 -864 -401 0
-404 864 0
-404 401 0
405 -865 -15 0
-405 865 0
-405 15 0
406 -405 -46 0
-406 405 0
-406 46 0
407 -866 -404 0
-407 866 0
-407 404 0
408 -751 -719 0
-408 751 0
-408 719 0
409 -408 -26 0
-409 408 0
-409 26 0
410 -867 -407 0
-410 867 0
-410 407 0
411 -32 -707 0
-411 32 0
-411 707 0
412 -411 -724 0
-412 411 0
-412 724 0
413 -868 -410 0
-413 868 0
-413 410 0
414 -8 -4 0
-414 8 0
-414 4 0
415 -414 -700 0
-415 414 0
-415 700 0
416 -869 -413 0
-416 869 0
-416 413 0
417 -829 -17 0
-417 829 0
-417 17 0
418 -417 -46 0
-418 417 0
-418 46 0
419 -870 -416 0
-419 870 0
-419 416 0
420 -23 -708 0
-420 23 0
-420 708 0
421 -420 -29 0
-421 420 0
-421 29 0
422 -871 -419 0
-422 871 0
-422 419 0
423 -722 -18 0
-423 722 0
-423 18 0
424 -423 -801 0
-424 423 0
-424 801 0
425 -872 -422 0
-425 872 0
-425 422 0
426 -31 -712 0
-426 31 0
-426 712 0
427 -426 -704 0
-427 426 0
-427 704 0
428 -873 -425 0
-428 873 0
-428 425 0
429 -730 -4 0
-429 730 0
-429 4 0
430 -429 -38 0
-430 429 0
-430 38 0
431 -874 -428 0
-431 874 0
-431 428 0
432 -31 -10 0
-432 31 0
-432 10 0
433 -432 -808 0
-433 432 0
-433 808 0
434 -875 -431 0
-434 875 0
-434 431 0
435 -764 -33 0
-435 764 0
-435 33 0
436 -435 -720 0
-436 435 0
-436 720 0
437 -876 -434 0
-437 876 0
-437 434 0
438 -11 -1 0
-438 11 0
-438 1 0
439 -438 -754 0
-439 438 0
-439 754 0
440 -877 -437 0
-440 877 0
-440 437 0
441 -754 -14 0
-441 754 0
-441 14 0
442 -441 -720 0
-442 441 0
-442 720 0
443 -878 -440 0
-443 878 0
-443 440 0
444 -790 -782 0
-444 790 0
-444 782 0
445 -444 -724 0
-445 444 0
-445 724 0
446 -879 -443 0
-446 879 0
-446 443 0
447 -290 -700 0
-447 290 0
-447 700 0
448 -880 -446 0
-448 880 0
-448 446 0
449 -49 -27 0
-449 49 0
-449 27 0
450 -449 -34 0
-450 449 0
-450 34 0
451 -881 -448 0
-451 881 0
-451 448 0
452 -44 -43 0
-452 44 0
-452 43 0
453 -452 -801 0
-453 452 0
-453 801 0
454 -882 -451 0
-454 882 0
-454 451 0
455 -764 -731 0
-455 764 0
-455 731 0
456 -455 -12 0
-456 455 0
-456 12 0
457 -883 -454 0
-457 883 0
-457 454 0
458 -722 -716 0
-458 722 0
-458 716 0
459 -458 -45 0
-459 458 0
-459 45 0
460 -884 -457 0
-460 884 0
-460 457 0
461 -734 -771 0
-461 734 0
-461 771 0
462 -461 -48 0
-462 461 0
-462 48 0
463 -885 -460 0
-463 885 0
-463 460 0
464 -783 -724 0
-464 783 0
-464 724 0
465 -464 -47 0
-465 464 0
-465 47 0
466 -886 -463 0
-466 886 0
-466 463 0
467 -753 -41 0
-467 753 0
-467 41 0
468 -467 -34 0
-468 467 0
-468 34 0
469 -887 -466 0
-469 887 0
-469 466 0
470 -32 -782 0
-470 32 0
-470 782 0
471 -470 -22 0
-471 470 0
-471 22 0
472 -888 -469 0
-472 888 0
-472 469 0
473 -39 -26 0
-473 39 0
-473 26 0
474 -473 -756 0
-474 473 0
-474 756 0
475 -889 -472 0
-475 889 0
-475 472 0
476 -716 -2 0
-476 716 0
-476 2 0
477 -476 -6 0
-477 476 0
-477 6 0
478 -890 -475 0
-478 890 0
-478 475 0
479 -10 -4 0
-479 10 0
-479 4 0
480 -479 -734 0
-480 479 0
-480 734 0
481 -891 -478 0
-481 891 0
-481 478 0
482 -49 -782 0
-482 49 0
-482 782 0
483 -482 -720 0
-483 482 0
-483 720 0
484 -892 -481 0
-484 892 0
-484 481 0
485 -44 -41 0
-485 44 0
-485 41 0
486 -485 -9 0
-486 485 0
-486 9 0
487 -893 -484 0
-487 893 0
-487 484 0
488 -753 -24 0
-488 753 0
-488 24 0
489 -488 -48 0
-489 488 0
-489 48 0
490 -894 -487 0
-490 894 0
-490 487 0
491 -50 -808 0
-491 50 0
-491 808 0
492 -491 -5 0
-492 491 0
-492 5 0
493 -895 -490 0
-493 895 0
-493 490 0
494 -779 -773 0
-494 779 0
-494 773 0
495 -494 -790 0
-495 494 0
-495 790 0
496 -896 -493 0
-496 896 0
-496 493 0
497 -731 -10 0
-497 731 0
-497 10 0
498 -497 -703 0
-498 497 0
-498 703 0
499 -897 -496 0
-499 897 0
-499 496 0
500 -23 -716 0
-500 23 0
-500 716 0
501 -500 -40 0
-501 500 0
-501 40 0
502 -898 -499 0
-502 898 0
-502 499 0
503 -790 -719 0
-503 790 0
-503 719 0
504 -503 -704 0
-504 503 0
-504 704 0
505 -899 -502 0
-505 899 0
-505 502 0
506 -37 -32 0
-506 37 0
-506 32 0
507 -506 -743 0
-507 506 0
-507 743 0
508 -900 -505 0
-508 900 0
-508 505 0
509 -782 -15 0
-509 782 0
-509 15 0
510 -509 -14 0
-510 509 0
-510 14 0
511 -901 -508 0
-511 901 0
-511 508 0
512 -902 -699 0
-512 902 0
-512 699 0
513 -512 -26 0
-513 512 0
-513 26 0
514 -903 -511 0
-514 903 0
-514 511 0
515 -39 -28 0
-515 39 0
-515 28 0
516 -515 -29 0
-516 515 0
-516 29 0
517 -904 -514 0
-517 904 0
-517 514 0
518 -36 -12 0
-518 36 0
-518 12 0
519 -518 -783 0
-519 518 0
-519 783 0
520 -905 -517 0
-520 905 0
-520 517 0
521 -38 -27 0
-521 38 0
-521 27 0
522 -521 -46 0
-522 521 0
-522 46 0
523 -906 -520 0
-523 906 0
-523 520 0
524 -829 -2 0
-524 829 0
-524 2 0
525 -524 -16 0
-525 524 0
-525 16 0
526 -907 -523 0
-526 907 0
-526 523 0
527 -24 -715 0
-527 24 0
-527 715 0
528 -527 -704 0
-528 527 0
-528 704 0
529 -908 -526 0
-529 908 0
-529 526 0
530 -25 -1 0
-530 25 0
-530 1 0
531 -530 -751 0
-531 530 0
-531 751 0
532 -909 -529 0
-532 909 0
-532 529 0
533 -910 -773 0
-533 910 0
-533 773 0
534 -533 -717 0
-534 533 0
-534 717 0
535 -911 -532 0
-535 911 0
-535 532 0
536 -724 -12 0
-536 724 0
-536 12 0
537 -536 -22 0
-537 536 0
-537 22 0
538 -912 -535 0
-538 912 0
-538 535 0
539 -749 -20 0
-539 749 0
-539 20 0
540 -539 -3 0
-540 539 0
-540 3 0
541 -913 -538 0
-541 913 0
-541 538 0
542 -754 -720 0
-542 754 0
-542 720 0
543 -542 -40 0
-543 542 0
-543 40 0
544 -914 -541 0
-544 914 0
-544 541 0
545 -31 -716 0
-545 31 0
-545 716 0
546 -545 -861 0
-546 545 0
-546 861 0
547 -915 -544 0
-547 915 0
-547 544 0
548 -122 -21 0
-548 122 0
-548 21 0
549 -916 -547 0
-549 916 0
-549 547 0
550 -49 -5 0
-550 49 0
-550 5 0
551 -550 -759 0
-551 550 0
-551 759 0
552 -917 -549 0
-552 917 0
-552 549 0
553 -31 -762 0
-553 31 0
-553 762 0
554 -553 -41 0
-554 553 0
-554 41 0
555 -918 -552 0
-555 918 0
-555 552 0
556 -37 -712 0
-556 37 0
-556 712 0
557 -556 -48 0
-557 556 0
-557 48 0
558 -919 -555 0
-558 919 0
-558 555 0
559 -41 -723 0
-559 41 0
-559 723 0
560 -559 -5 0
-560 559 0
-560 5 0
561 -920 -558 0
-561 920 0
-561 558 0
562 -48 -42 0
-562 48 0
-562 42 0
563 -562 -717 0
-563 562 0
-563 717 0
564 -921 -561 0
-564 921 0
-564 561 0
565 -18 -773 0
-565 18 0
-565 773 0
566 -565 -34 0
-566 565 0
-566 34 0
567 -922 -564 0
-567 922 0
-567 564 0
568 -43 -738 0
-568 43 0
-568 738 0
569 -568 -712 0
-569 568 0
-569 712 0
570 -923 -567 0
-570 923 0
-570 567 0
571 -25 -782 0
-571 25 0
-571 782 0
572 -571 -753 0
-572 571 0
-572 753 0
573 -924 -570 0
-573 924 0
-573 570 0
574 -727 -720 0
-574 727 0
-574 720 0
575 -574 -704 0
-575 574 0
-575 704 0
576 -925 -573 0
-576 925 0
-576 573 0
577 -23 -771 0
-577 23 0
-577 771 0
578 -577 -24 0
-578 577 0
-578 24 0
579 -926 -576 0
-579 926 0
-579 576 0
580 -30 -2 0
-580 30 0
-580 2 0
581 -580 -704 0
-581 580 0
-581 704 0
582 -927 -579 0
-582 927 0
-582 579 0
583 -731 -728 0
-583 731 0
-583 728 0
584 -583 -793 0
-584 583 0
-584 793 0
585 -928 -582 0
-585 928 0
-585 582 0
586 -41 -24 0
-586 41 0
-586 24 0
587 -586 -783 0
-587 586 0
-587 783 0
588 -929 -585 0
-588 929 0
-588 585 0
589 -42 -1 0
-589 42 0
-589 1 0
590 -589 -723 0
-590 589 0
-590 723 0
591 -930 -588 0
-591 930 0
-591 588 0
592 -712 -12 0
-592 712 0
-592 12 0
593 -592 -793 0
-593 592 0
-593 793 0
594 -931 -591 0
-594 931 0
-594 591 0
595 -19 -1 0
-595 19 0
-595 1 0
596 -595 -5 0
-596 595 0
-596 5 0
597 -932 -594 0
-597 932 0
-597 594 0
598 -722 -712 0
-598 722 0
-598 712 0
599 -598 -48 0
-599 598 0
-599 48 0
600 -933 -597 0
-600 933 0
-600 597 0
601 -42 -33 0
-601 42 0
-601 33 0
602 -601 -801 0
-602 601 0
-602 801 0
603 -934 -600 0
-603 934 0
-603 600 0
604 -740 -1 0
-604 740 0
-604 1 0
605 -604 -829 0
-605 604 0
-605 829 0
606 -935 -603 0
-606 935 0
-606 603 0
607 -751 -32 0
-607 751 0
-607 32 0
608 -607 -820 0
-608 607 0
-608 820 0
609 -936 -606 0
-609 936 0
-609 606 0
610 -41 -902 0
-610 41 0
-610 902 0
611 -610 -22 0
-611 610 0
-611 22 0
612 -937 -609 0
-612 937 0
-612 609 0
613 -43 -708 0
-613 43 0
-613 708 0
614 -613 -50 0
-614 613 0
-614 50 0
615 -938 -612 0
-615 938 0
-615 612 0
616 -43 -703 0
-616 43 0
-616 703 0
617 -616 -738 0
-617 616 0
-617 738 0
618 -939 -615 0
-618 939 0
-618 615 0
619 -5 -699 0
-619 5 0
-619 699 0
620 -619 -700 0
-620 619 0
-620 700 0
621 -940 -618 0
-621 940 0
-621 618 0
622 -38 -19 0
-622 38 0
-622 19 0
623 -622 -801 0
-623 622 0
-623 801 0
624 -941 -621 0
-624 941 0
-624 621 0
625 -44 -801 0
-625 44 0
-625 801 0
626 -625 -22 0
-626 625 0
-626 22 0
627 -942 -624 0
-627 942 0
-627 624 0
628 -753 -773 0
-628 753 0
-628 773 0
629 -628 -21 0
-629 628 0
-629 21 0
630 -943 -627 0
-630 943 0
-630 627 0
631 -42 -762 0
-631 42 0
-631 762 0
632 -631 -736 0
-632 631 0
-632 736 0
633 -944 -630 0
-633 944 0
-633 630 0
634 -764 -703 0
-634 764 0
-634 703 0
635 -634 -743 0
-635 634 0
-635 743 0
636 -945 -633 0
-636 945 0
-636 633 0
637 -790 -730 0
-637 790 0
-637 730 0
638 -637 -783 0
-638 637 0
-638 783 0
639 -946 -636 0
-639 946 0
-639 636 0
640 -730 -902 0
-640 730 0
-640 902 0
641 -640 -27 0
-641 640 0
-641 27 0
642 -947 -639 0
-642 947 0
-642 639 0
643 -722 -706 0
-643 722 0
-643 706 0
644 -643 -48 0
-644 643 0
-644 48 0
645 -948 -642 0
-645 948 0
-645 642 0
646 -32 -706 0
-646 32 0
-646 706 0
647 -646 -18 0
-647 646 0
-647 18 0
648 -949 -645 0
-648 949 0
-648 645 0
649 -801 -11 0
-649 801 0
-649 11 0
650 -649 -861 0
-650 649 0
-650 861 0
651 -950 -648 0
-651 950 0
-651 648 0
652 -49 -38 0
-652 49 0
-652 38 0
653 -652 -46 0
-653 652 0
-653 46 0
654 -951 -651 0
-654 951 0
-654 651 0
655 -45 -712 0
-655 45 0
-655 712 0
656 -655 -5 0
-656 655 0
-656 5 0
657 -952 -654 0
-657 952 0
-657 654 0
658 -48 -764 0
-658 48 0
-658 764 0
659 -658 -21 0
-659 658 0
-659 21 0
660 -953 -657 0
-660 953 0
-660 657 0
661 -43 -730 0
-661 43 0
-661 730 0
662 -661 -734 0
-662 661 0
-662 734 0
663 -954 -660 0
-663 954 0
-663 660 0
664 -782 -771 0
-664 782 0
-664 771 0
665 -664 -19 0
-665 664 0
-665 19 0
666 -955 -663 0
-666 955 0
-666 663 0
667 -753 -719 0
-667 753 0
-667 719 0
668 -667 -3 0
-668 667 0
-668 3 0
669 -956 -666 0
-669 956 0
-669 666 0
670 -790 -700 0
-670 790 0
-670 700 0
671 -670 -717 0
-671 670 0
-671 717 0
672 -957 -669 0
-672 957 0
-672 669 0
673 -706 -5 0
-673 706 0
-673 5 0
674 -673 -16 0
-674 673 0
-674 16 0
675 -958 -672 0
-675 958 0
-675 672 0
676 -49 -29 0
-676 49 0
-676 29 0
677 -676 -20 0
-677 676 0
-677 20 0
678 -959 -675 0
-678 959 0
-678 675 0
679 -764 -733 0
-679 764 0
-679 733 0
680 -679 -783 0
-680 679 0
-680 783 0
681 -960 -678 0
-681 960 0
-681 678 0
682 -25 -762 0
-682 25 0
-682 762 0
683 -682 -793 0
-683 682 0
-683 793 0
684 -961 -681 0
-684 961 0
-684 681 0
685 -707 -773 0
-685 707 0
-685 773 0
686 -685 -13 0
-686 685 0
-686 13 0
687 -962 -684 0
-687 962 0
-687 684 0
688 -43 -7 0
-688 43 0
-688 7 0
689 -688 -706 0
-689 688 0
-689 706 0
690 -963 -687 0
-690 963 0
-690 687 0
691 -820 -734 0
-691 820 0
-691 734 0
692 -691 -20 0
-692 691 0
-692 20 0
693 -964 -690 0
-693 964 0
-693 690 0
694 -12 -1 0
-694 12 0
-694 1 0
695 -694 -34 0
-695 694 0
-695 34 0
696 -965 -693 0
-696 965 0
-696 693 0
697 -622 -736 0
-697 622 0
-697 736 0
698 -966 -696 0
-698 966 0
-698 696 0
-699 -1 0
699 1 0
-700 -6 0
700 6 0
-701 -54 0
701 54 0
-702 -52 0
702 52 0
-703 -8 0
703 8 0
-704 -9 0
704 9 0
-705 -57 0
705 57 0
-706 -11 0
706 11 0
-707 -10 0
707 10 0
-708 -12 0
708 12 0
-709 -60 0
709 60 0
-710 -63 0
710 63 0
-711 -66 0
711 66 0
-712 -17 0
712 17 0
-713 -69 0
713 69 0
-714 -72 0
714 72 0
-715 -21 0
715 21 0
-716 -15 0
716 15 0
-717 -22 0
717 22 0
-718 -75 0
718 75 0
-719 -24 0
719 24 0
-720 -19 0
720 19 0
-721 -78 0
721 78 0
-722 -25 0
722 25 0
-723 -13 0
723 13 0
-724 -26 0
724 26 0
-725 -81 0
725 81 0
-726 -84 0
726 84 0
-727 -28 0
727 28 0
-728 -29 0
728 29 0
-729 -87 0
729 87 0
-730 -31 0
730 31 0
-731 -30 0
731 30 0
-732 -90 0
732 90 0
-733 -32 0
733 32 0
-734 -27 0
734 27 0
-735 -93 0
735 93 0
-736 -20 0
736 20 0
-737 -96 0
737 96 0
-738 -4 0
738 4 0
-739 -99 0
739 99 0
-740 -36 0
740 36 0
-741 -102 0
741 102 0
-742 -105 0
742 105 0
-743 -38 0
743 38 0
-744 -108 0
744 108 0
-745 -111 0
745 111 0
-746 -114 0
746 114 0
-747 -117 0
747 117 0
-748 -120 0
748 120 0
-749 -37 0
749 37 0
-750 -123 0
750 123 0
-751 -41 0
751 41 0
-752 -126 0
752 126 0
-753 -42 0
753 42 0
-754 -33 0
754 33 0
-755 -129 0
755 129 0
-756 -35 0
756 35 0
-757 -132 0
757 132 0
-758 -135 0
758 135 0
-759 -16 0
759 16 0
-760 -3 0
760 3 0
-761 -138 0
761 138 0
-762 -14 0
762 14 0
-763 -141 0
763 141 0
-764 -44 0
764 44 0
-765 -144 0
765 144 0
-766 -147 0
766 147 0
-767 -150 0
767 150 0
-768 -153 0
768 153 0
-769 -156 0
769 156 0
-770 -159 0
770 159 0
-771 -18 0
771 18 0
-772 -162 0
772 162 0
-773 -7 0
773 7 0
-774 -165 0
774 165 0
-775 -168 0
775 168 0
-776 -171 0
776 171 0
-777 -174 0
777 174 0
-778 -177 0
778 177 0
-779 -43 0
779 43 0
-780 -180 0
780 180 0
-781 -183 0
781 183 0
-782 -23 0
782 23 0
-783 -46 0
783 46 0
-784 -186 0
784 186 0
-785 -189 0
785 189 0
-786 -192 0
786 192 0
-787 -195 0
787 195 0
-788 -198 0
788 198 0
-789 -201 0
789 201 0
-790 -39 0
790 39 0
-791 -204 0
791 204 0
-792 -207 0
792 207 0
-793 -47 0
793 47 0
-794 -210 0
794 210 0
-795 -213 0
795 213 0
-796 -216 0
796 216 0
-797 -219 0
797 219 0
-798 -222 0
798 222 0
-799 -225 0
799 225 0
-800 -228 0
800 228 0
-801 -40 0
801 40 0
-802 -231 0
802 231 0
-803 -234 0
803 234 0
-804 -237 0
804 237 0
-805 -240 0
805 240 0
-806 -243 0
806 243 0
-807 -246 0
807 246 0
-808 -48 0
808 48 0
-809 -249 0
809 249 0
-810 -252 0
810 252 0
-811 -255 0
811 255 0
-812 -258 0
812 258 0
-813 -261 0
813 261 0
-814 -264 0
814 264 0
-815 -267 0
815 267 0
-816 -270 0
816 270 0
-817 -273 0
817 273 0
-818 -276 0
818 276 0
-819 -279 0
819 279 0
-820 -45 0
820 45 0
-821 -282 0
821 282 0
-822 -285 0
822 285 0
-823 -288 0
823 288 0
-824 -291 0
824 291 0
-825 -294 0
825 294 0
-826 -297 0
826 297 0
-827 -300 0
827 300 0
-828 -302 0
828 302 0
-829 -50 0
829 50 0
-830 -305 0
830 305 0
-831 -308 0
831 308 0
-832 -311 0
832 311 0
-833 -314 0
833 314 0
-834 -317 0
834 317 0
-835 -320 0
835 320 0
-836 -323 0
836 323 0
-837 -326 0
837 326 0
-838 -329 0
838 329 0
-839 -332 0
839 332 0
-840 -335 0
840 335 0
-841 -338 0
841 338 0
-842 -341 0
842 341 0
-843 -344 0
843 344 0
-844 -347 0
844 347 0
-845 -350 0
845 350 0
-846 -353 0
846 353 0
-847 -356 0
847 356 0
-848 -359 0
848 359 0
-849 -362 0
849 362 0
-850 -365 0
850 365 0
-851 -368 0
851 368 0
-852 -371 0
852 371 0
-853 -374 0
853 374 0
-854 -377 0
854 377 0
-855 -379 0
855 379 0
-856 -382 0
856 382 0
-857 -385 0
857 385 0
-858 -388 0
858 388 0
-859 -391 0
859 391 0
-860 -394 0
860 394 0
-861 -5 0
861 5 0
-862 -397 0
862 397 0
-863 -400 0
863 400 0
-864 -403 0
864 403 0
-865 -49 0
865 49 0
-866 -406 0
866 406 0
-867 -409 0
867 409 0
-868 -412 0
868 412 0
-869 -415 0
869 415 0
-870 -418 0
870 418 0
-871 -421 0
871 421 0
-872 -424 0
872 424 0
-873 -427 0
873 427 0
-874 -430 0
874 430 0
-875 -433 0
875 433 0
-876 -436 0
876 436 0
-877 -439 0
877 439 0
-878 -442 0
878 442 0
-879 -445 0
879 445 0
-880 -447 0
880 447 0
-881 -450 0
881 450 0
-882 -453 0
882 453 0
-883 -456 0
883 456 0
-884 -459 0
884 459 0
-885 -462 0
885 462 0
-886 -465 0
886 465 0
-887 -468 0
887 468 0
-888 -471 0
888 471 0
-889 -474 0
889 474 0
-890 -477 0
890 477 0
-891 -480 0
891 480 0
-892 -483 0
892 483 0
-893 -486 0
893 486 0
-894 -489 0
894 489 0
-895 -492 0
895 492 0
-896 -495 0
896 495 0
-897 -498 0
897 498 0
-898 -501 0
898 501 0
-899 -504 0
899 504 0
-900 -507 0
900 507 0
-901 -510 0
901 510 0
-902 -2 0
902 2 0
-903 -513 0
903 513 0
-904 -516 0
904 516 0
-905 -519 0
905 519 0
-906 -522 0
906 522 0
-907 -525 0
907 525 0
-908 -528 0
908 528 0
-909 -531 0
909 531 0
-910 -34 0
910 34 0
-911 -534 0
911 534 0
-912 -537 0
912 537 0
-913 -540 0
913 540 0
-914 -543 0
914 543 0
-915 -546 0
915 546 0
-916 -548 0
916 548 0
-917 -551 0
917 551 0
-918 -554 0
918 554 0
-919 -557 0
919 557 0
-920 -560 0
920 560 0
-921 -563 0
921 563 0
-922 -566 0
922 566 0
-923 -569 0
923 569 0
-924 -572 0
924 572 0
-925 -575 0
925 575 0
-926 -578 0
926 578 0
-927 -581 0
927 581 0
-928 -584 0
928 584 0
-929 -587 0
929 587 0
-930 -590 0
930 590 0
-931 -593 0
931 593 0
-932 -596 0
932 596 0
-933 -599 0
933 599 0
-934 -602 0
934 602 0
-935 -605 0
935 605 0
-936 -608 0
936 608 0
-937 -611 0
937 611 0
-938 -614 0
938 614 0
-939 -617 0
939 617 0
-940 -620 0
940 620 0
-941 -623 0
941 623 0
-942 -626 0
942 626 0
-943 -629 0
943 629 0
-944 -632 0
944 632 0
-945 -635 0
945 635 0
-946 -638 0
946 638 0
-947 -641 0
947 641 0
-948 -644 0
948 644 0
-949 -647 0
949 647 0
-950 -650 0
950 650 0
-951 -653 0
951 653 0
-952 -656 0
952 656 0
-953 -659 0
953 659 0
-954 -662 0
954 662 0
-955 -665 0
955 665 0
-956 -668 0
956 668 0
-957 -671 0
957 671 0
-958 -674 0
958 674 0
-959 -677 0
959 677 0
-960 -680 0
960 680 0
-961 -683 0
961 683 0
-962 -686 0
962 686 0
-963 -689 0
963 689 0
-964 -692 0
964 692 0
-965 -695 0
965 695 0
-966 -697 0
966 697 0
698 0
